Ga1 As1
5.65315
0.000000 0.500000 0.500000
0.500000 0.000000 0.500000
0.500000 0.500000 0.000000
Ga As
1 1
direct
0.000000 0.000000 0.000000 Ga
0.250000 0.250000 0.250000 As
