Cd19 Te20 H4
1.0
-0.000000 -3.239700 3.239700
-3.239700 3.239700 0.000000
-77.752800 -77.752800 -77.752800
Cd Te H
19 20 4
direct
0.666667 0.333333 0.604167 Cd
0.000000 0.000000 0.576389 Cd
0.333333 0.666667 0.548611 Cd
0.666667 0.333333 0.520833 Cd
0.000000 0.000000 0.493056 Cd
0.333333 0.666667 0.465278 Cd
0.666667 0.333333 0.437500 Cd
0.000000 0.000000 0.409722 Cd
0.333333 0.666667 0.381944 Cd
0.666667 0.333333 0.354167 Cd
0.000000 0.000000 0.326389 Cd
0.333333 0.666667 0.298611 Cd
0.666667 0.333333 0.270833 Cd
0.000000 0.000000 0.243056 Cd
0.333333 0.666667 0.215278 Cd
0.666667 0.333333 0.187500 Cd
0.000000 0.000000 0.159722 Cd
0.333333 0.666667 0.131944 Cd
0.666667 0.333333 0.104167 Cd
0.333333 0.666667 0.611111 Te
0.666667 0.333333 0.583333 Te
0.000000 0.000000 0.555556 Te
0.333333 0.666667 0.527778 Te
0.666667 0.333333 0.500000 Te
0.000000 0.000000 0.472222 Te
0.333333 0.666667 0.444444 Te
0.666667 0.333333 0.416667 Te
0.000000 0.000000 0.388889 Te
0.333333 0.666667 0.361111 Te
0.666667 0.333333 0.333333 Te
0.000000 0.000000 0.305556 Te
0.333333 0.666667 0.277778 Te
0.666667 0.333333 0.250000 Te
0.000000 0.000000 0.222222 Te
0.333333 0.666667 0.194444 Te
0.666667 0.333333 0.166667 Te
0.000000 0.000000 0.138889 Te
0.333333 0.666667 0.111111 Te
0.666667 0.333333 0.083333 Te
0.257481 0.128740 0.078407 H
0.871260 0.128741 0.078407 H
0.871258 0.742519 0.078407 H
0.333333 0.666667 0.624203 H
