H7
1.0
  -1.6795993742330011    0.0000000000000000    0.0000000000000000
   0.5598664580776668   -1.5835414762624493    0.0000000000000000
   0.5598664580776672    0.7917707381312247    1.3713871463895932
H
7
direct
   0.0000000000000000    0.0000000000000000    0.0000000000000000 H
   0.0000000000000000    0.5000000000000001    0.5000000000000000 H
   0.0000000000000000    0.0000000000000000    0.5000000000000000 H
   0.2500000000000000    0.5000000000000001    0.7500000000000001 H
   0.7500000000000000    0.2500000000000000    0.5000000000000000 H
   0.3750000000000002    0.3750000000000002    0.7500000000000001 H
   1.0000000000000000    0.3750000000000000    0.6250000000000000 H
