Cd40 Te40
1.0
   3.2397000000000000   -3.2397000000000005    0.0000000000000000
  -0.0000000000000000   -0.0000000000000000    6.4794000000000027
-119.7426924949238298 -119.7426924949238298   -0.0000000000000000
Cd Te
40 40
direct
   0.0000000000000014    0.0000000000000000    0.2362087460882920 Cd
   0.5000000000000016    0.5000000000000002    0.2497365026991488 Cd
   0.0000000000000003    0.9999999999999999    0.2632642593100056 Cd
   0.4999999999999999    0.5000000000000002    0.2767920159208624 Cd
   0.9999999999999996    0.9999999999999999    0.2903197725317193 Cd
   0.4999999999999999    0.4999999999999996    0.3038475291425761 Cd
   0.0000000000000003    0.9999999999999998    0.3173752857534329 Cd
   0.5000000000000004    0.4999999999999995    0.3309030423642897 Cd
   0.0000000000000003    0.9999999999999998    0.3444307989751465 Cd
   0.5000000000000004    0.4999999999999994    0.3579585555860033 Cd
   0.0000000000000025    0.9999999999999998    0.3714863121968601 Cd
   0.5000000000000004    0.4999999999999994    0.3850140688077169 Cd
   0.0000000000000003    0.9999999999999998    0.3985418254185737 Cd
   0.5000000000000004    0.4999999999999994    0.4120695820294306 Cd
   0.9999999999999990    0.9999999999999996    0.4255973386402874 Cd
   0.5000000000000004    0.4999999999999993    0.4391250952511442 Cd
   0.9999999999999990    0.9999999999999996    0.4526528518620010 Cd
   0.4999999999999993    0.4999999999999992    0.4661806084728578 Cd
   0.0000000000000003    0.9999999999999994    0.4797083650837146 Cd
   0.4999999999999993    0.4999999999999992    0.4932361216945715 Cd
   0.0000000000000003    0.9999999999999993    0.5067638783054285 Cd
   0.5000000000000004    0.4999999999999991    0.5202916349162852 Cd
   0.0000000000000003    0.9999999999999993    0.5338193915271421 Cd
   0.5000000000000004    0.4999999999999991    0.5473471481379988 Cd
   0.0000000000000003    0.9999999999999992    0.5608749047488557 Cd
   0.4999999999999982    0.4999999999999990    0.5744026613597125 Cd
   0.0000000000000003    0.9999999999999992    0.5879304179705693 Cd
   0.5000000000000047    0.4999999999999989    0.6014581745814260 Cd
   0.9999999999999957    0.9999999999999992    0.6149859311922830 Cd
   0.5000000000000047    0.4999999999999988    0.6285136878031397 Cd
   0.0000000000000003    0.9999999999999992    0.6420414444139966 Cd
   0.5000000000000004    0.4999999999999988    0.6555692010248533 Cd
   0.9999999999999979    0.9999999999999990    0.6690969576357102 Cd
   0.5000000000000004    0.4999999999999988    0.6826247142465669 Cd
   0.9999999999999957    0.9999999999999990    0.6961524708574238 Cd
   0.5000000000000004    0.4999999999999987    0.7096802274682805 Cd
   0.9999999999999957    0.9999999999999989    0.7232079840791374 Cd
   0.5000000000000004    0.4999999999999986    0.7367357406899941 Cd
   0.9999999999999979    0.9999999999999989    0.7502634973008510 Cd
   0.4999999999999938    0.4999999999999986    0.7637912539117079 Cd
   0.0000000000000014    0.2499999999999998    0.2497365026991488 Te
   0.5000000000000009    0.7500000000000001    0.2362087460882920 Te
   0.9999999999999996    0.2499999999999998    0.2767920159208624 Te
   0.5000000000000004    0.7500000000000001    0.2632642593100056 Te
   0.0000000000000003    0.2499999999999997    0.3038475291425761 Te
   0.4999999999999999    0.7500000000000000    0.2903197725317193 Te
   0.0000000000000003    0.2499999999999997    0.3309030423642897 Te
   0.5000000000000004    0.7500000000000000    0.3173752857534329 Te
   0.0000000000000003    0.2499999999999996    0.3579585555860033 Te
   0.5000000000000004    0.7499999999999998    0.3444307989751465 Te
   0.0000000000000003    0.2499999999999995    0.3850140688077169 Te
   0.5000000000000027    0.7499999999999998    0.3714863121968601 Te
   0.0000000000000003    0.2499999999999994    0.4120695820294305 Te
   0.5000000000000004    0.7499999999999998    0.3985418254185737 Te
   0.9999999999999979    0.2499999999999994    0.4391250952511442 Te
   0.4999999999999960    0.7499999999999998    0.4255973386402874 Te
   0.9999999999999990    0.2499999999999994    0.4661806084728579 Te
   0.4999999999999971    0.7499999999999996    0.4526528518620010 Te
   0.0000000000000003    0.2499999999999993    0.4932361216945715 Te
   0.5000000000000004    0.7499999999999996    0.4797083650837146 Te
   0.0000000000000003    0.2499999999999992    0.5202916349162852 Te
   0.5000000000000004    0.7499999999999996    0.5067638783054285 Te
   0.0000000000000003    0.2499999999999991    0.5473471481379988 Te
   0.4999999999999993    0.7499999999999996    0.5338193915271421 Te
   0.0000000000000003    0.2499999999999991    0.5744026613597124 Te
   0.5000000000000004    0.7499999999999996    0.5608749047488557 Te
   0.0000000000000047    0.2499999999999990    0.6014581745814260 Te
   0.5000000000000049    0.7499999999999993    0.5879304179705692 Te
   0.0000000000000047    0.2499999999999990    0.6285136878031397 Te
   0.4999999999999960    0.7499999999999993    0.6149859311922830 Te
   0.0000000000000003    0.2499999999999989    0.6555692010248533 Te
   0.5000000000000004    0.7499999999999991    0.6420414444139966 Te
   0.0000000000000003    0.2499999999999988    0.6826247142465669 Te
   0.4999999999999960    0.7499999999999991    0.6690969576357102 Te
   0.0000000000000003    0.2499999999999988    0.7096802274682805 Te
   0.4999999999999960    0.7499999999999991    0.6961524708574238 Te
   0.0000000000000003    0.2499999999999987    0.7367357406899941 Te
   0.4999999999999960    0.7499999999999991    0.7232079840791374 Te
   0.9999999999999957    0.2499999999999987    0.7637912539117078 Te
   0.4999999999999982    0.7499999999999991    0.7502634973008510 Te
