Pd4
3.89
1.000000 0.000000 0.000000
0.000000 1.000000 0.000000
0.000000 0.000000 1.000000
Pd
4
direct
0.000000 0.000000 0.000000 Pd
0.000000 0.500000 0.500000 Pd
0.500000 0.000000 0.500000 Pd
0.500000 0.500000 0.000000 Pd
