Cd3 Te3
1.0
2.290814 -3.967806 0.000000
2.290814 3.967806 0.000000
0.000000 0.000000 11.222649
Cd Te
3 3
direct
0.333333 0.666667 0.916667 Cd
0.666667 0.333333 0.583333 Cd
0.000000 0.000000 0.250000 Cd
0.333333 0.666667 0.666667 Te
0.666667 0.333333 0.333333 Te
0.000000 0.000000 0.000000 Te
