Cd30 Te31 H4
1.0
2.290814 -3.967806 0.000000
2.290814 3.967806 0.000000
0.000000 0.000000 168.339750
Cd Te H
30 31 4
direct
0.666667 0.333333 0.727778 Cd
0.000000 0.000000 0.705556 Cd
0.333333 0.666667 0.683333 Cd
0.666667 0.333333 0.661111 Cd
0.000000 0.000000 0.638889 Cd
0.333333 0.666667 0.616667 Cd
0.666667 0.333333 0.594444 Cd
0.000000 0.000000 0.572222 Cd
0.333333 0.666667 0.550000 Cd
0.666667 0.333333 0.527778 Cd
0.000000 0.000000 0.505556 Cd
0.333333 0.666667 0.483333 Cd
0.666667 0.333333 0.461111 Cd
0.000000 0.000000 0.438889 Cd
0.333333 0.666667 0.416667 Cd
0.666667 0.333333 0.394444 Cd
0.000000 0.000000 0.372222 Cd
0.333333 0.666667 0.350000 Cd
0.666667 0.333333 0.327778 Cd
0.000000 0.000000 0.305556 Cd
0.333333 0.666667 0.283333 Cd
0.666667 0.333333 0.261111 Cd
0.000000 0.000000 0.238889 Cd
0.333333 0.666667 0.216667 Cd
0.666667 0.333333 0.194444 Cd
0.000000 0.000000 0.172222 Cd
0.333333 0.666667 0.150000 Cd
0.666667 0.333333 0.127778 Cd
0.000000 0.000000 0.105556 Cd
0.333333 0.666667 0.083333 Cd
0.333333 0.666667 0.733333 Te
0.666667 0.333333 0.711111 Te
0.000000 0.000000 0.688889 Te
0.333333 0.666667 0.666667 Te
0.666667 0.333333 0.644444 Te
0.000000 0.000000 0.622222 Te
0.333333 0.666667 0.600000 Te
0.666667 0.333333 0.577778 Te
0.000000 0.000000 0.555556 Te
0.333333 0.666667 0.533333 Te
0.666667 0.333333 0.511111 Te
0.000000 0.000000 0.488889 Te
0.333333 0.666667 0.466667 Te
0.666667 0.333333 0.444444 Te
0.000000 0.000000 0.422222 Te
0.333333 0.666667 0.400000 Te
0.666667 0.333333 0.377778 Te
0.000000 0.000000 0.355556 Te
0.333333 0.666667 0.333333 Te
0.666667 0.333333 0.311111 Te
0.000000 0.000000 0.288889 Te
0.333333 0.666667 0.266667 Te
0.666667 0.333333 0.244444 Te
0.000000 0.000000 0.222222 Te
0.333333 0.666667 0.200000 Te
0.666667 0.333333 0.177778 Te
0.000000 0.000000 0.155556 Te
0.333333 0.666667 0.133333 Te
0.666667 0.333333 0.111111 Te
0.000000 0.000000 0.088889 Te
0.333333 0.666667 0.066667 Te
0.924147 0.462074 0.062726 H
0.537926 0.462074 0.062726 H
0.537925 0.075852 0.062726 H
0.333333 0.666667 0.743807 H
