Fe1
1.0
-1.433000 1.433000 1.433000
1.433000 -1.433000 1.433000
1.433000 1.433000 -1.433000
Fe
1
direct
0.000000 0.000000 0.000000 Fe
