H7
1.0
  -0.9697171508441501    0.9697171508441501    0.9697171508441501
   0.9697171508441501   -0.9697171508441501    0.9697171508441501
   0.9697171508441501    0.9697171508441501   -0.9697171508441501
H
7
direct
   0.0000000000000000    0.0000000000000000    0.0000000000000000 H
   0.5000000000000000    0.0000000000000000    0.5000000000000000 H
   0.5000000000000000    0.5000000000000000    0.5000000000000000 H
   0.5000000000000000    0.2500000000000000    0.7500000000000000 H
   0.7500000000000000    0.2500000000000000    0.5000000000000000 H
   0.3750000000000000    0.3750000000000000    0.7500000000000000 H
   0.6250000000000000    0.2500000000000000    0.6250000000000000 H
